
Gurobi 8.1.1 (win64) logging started 11/23/19 15:41:55

Changed value of parameter LogFile to logs/drand/max/drand-10-110-0.log
   Prev: gurobi.log  Default: 
Changed value of parameter LogToConsole to 0
   Prev: 1  Min: 0  Max: 1  Default: 1
Changed value of parameter TimeLimit to 3600.0
   Prev: 1e+100  Min: 0.0  Max: 1e+100  Default: 1e+100
Optimize a model with 802 rows, 369 columns and 2952 nonzeros
Variable types: 0 continuous, 369 integer (360 binary)
Coefficient statistics:
  Matrix range     [1e+00, 6e+02]
  Objective range  [1e+00, 1e+00]
  Bounds range     [1e+00, 1e+00]
  RHS range        [1e+00, 7e+02]
Found heuristic solution: objective 1.0000000
Presolve time: 0.01s
Presolved: 802 rows, 369 columns, 2952 nonzeros
Variable types: 0 continuous, 369 integer (360 binary)

Root relaxation: objective 1.000000e+01, 86 iterations, 0.00 seconds

    Nodes    |    Current Node    |     Objective Bounds      |     Work
 Expl Unexpl |  Obj  Depth IntInf | Incumbent    BestBd   Gap | It/Node Time

     0     0   10.00000    0    8    1.00000   10.00000   900%     -    0s
H    0     0                       6.0000000   10.00000  66.7%     -    0s
H    0     0                       7.0000000   10.00000  42.9%     -    0s
     0     0   10.00000    0   18    7.00000   10.00000  42.9%     -    0s
H    0     0                       8.0000000   10.00000  25.0%     -    0s
     0     0   10.00000    0   14    8.00000   10.00000  25.0%     -    0s
H    0     0                      10.0000000   10.00000  0.00%     -    0s
     0     0   10.00000    0   27   10.00000   10.00000  0.00%     -    0s

Cutting planes:
  Gomory: 9
  MIR: 7

Explored 1 nodes (365 simplex iterations) in 0.07 seconds
Thread count was 4 (of 4 available processors)

Solution count 5: 10 8 7 ... 1

Optimal solution found (tolerance 1.00e-04)
Best objective 1.000000000000e+01, best bound 1.000000000000e+01, gap 0.0000%

Gurobi 8.1.1 (win64) logging started 11/23/19 15:41:55

Changed value of parameter LogFile to logs/drand/max/drand-10-110-0.log
   Prev: gurobi.log  Default: 
Changed value of parameter LogToConsole to 0
   Prev: 1  Min: 0  Max: 1  Default: 1
Changed value of parameter TimeLimit to 3600.0
   Prev: 1e+100  Min: 0.0  Max: 1e+100  Default: 1e+100
Optimize a model with 472 rows, 217 columns and 1722 nonzeros
Variable types: 0 continuous, 217 integer (210 binary)
Coefficient statistics:
  Matrix range     [1e+00, 6e+02]
  Objective range  [1e+00, 1e+00]
  Bounds range     [1e+00, 1e+00]
  RHS range        [1e+00, 7e+02]
Found heuristic solution: objective 1.0000000
Presolve time: 0.01s
Presolved: 472 rows, 217 columns, 1722 nonzeros
Variable types: 0 continuous, 217 integer (210 binary)

Root relaxation: objective 1.000000e+01, 79 iterations, 0.00 seconds

    Nodes    |    Current Node    |     Objective Bounds      |     Work
 Expl Unexpl |  Obj  Depth IntInf | Incumbent    BestBd   Gap | It/Node Time

     0     0   10.00000    0    5    1.00000   10.00000   900%     -    0s
H    0     0                       8.0000000   10.00000  25.0%     -    0s
     0     0   10.00000    0   17    8.00000   10.00000  25.0%     -    0s
     0     0   10.00000    0   17    8.00000   10.00000  25.0%     -    0s
     0     0   10.00000    0    3    8.00000   10.00000  25.0%     -    0s
H    0     0                       9.0000000   10.00000  11.1%     -    0s
     0     0   10.00000    0    5    9.00000   10.00000  11.1%     -    0s
     0     0   10.00000    0    2    9.00000   10.00000  11.1%     -    0s
     0     0   10.00000    0    4    9.00000   10.00000  11.1%     -    0s
     0     0   10.00000    0    4    9.00000   10.00000  11.1%     -    0s
     0     0   10.00000    0    4    9.00000   10.00000  11.1%     -    0s
     0     0   10.00000    0    4    9.00000   10.00000  11.1%     -    0s
     0     2   10.00000    0    4    9.00000   10.00000  11.1%     -    0s
 40232  2675 infeasible   77         9.00000   10.00000  11.1%   5.1    5s
 70350   438 infeasible   64         9.00000   10.00000  11.1%   5.7   10s
 93830  3223 infeasible  106         9.00000   10.00000  11.1%   6.0   15s
 142586  8945   10.00000   79   11    9.00000   10.00000  11.1%   5.9   20s
 198317 19541 infeasible   79         9.00000   10.00000  11.1%   5.8   25s
 255546 25124   10.00000  105    6    9.00000   10.00000  11.1%   5.6   30s
 314169 31713 infeasible  102         9.00000   10.00000  11.1%   5.5   35s
 367609 30665   10.00000  106    8    9.00000   10.00000  11.1%   5.5   40s
 427719 31289 infeasible   91         9.00000   10.00000  11.1%   5.5   45s
 490112 30820 infeasible   98         9.00000   10.00000  11.1%   5.4   50s
 550019 31237 infeasible   81         9.00000   10.00000  11.1%   5.3   55s
 610641 30014   10.00000   98   12    9.00000   10.00000  11.1%   5.3   60s
 668430 29607 infeasible   91         9.00000   10.00000  11.1%   5.2   65s
 724988 29142 infeasible  115         9.00000   10.00000  11.1%   5.2   70s
 781287 29441 infeasible   96         9.00000   10.00000  11.1%   5.2   75s
 836050 28847 infeasible   79         9.00000   10.00000  11.1%   5.3   80s
 887105 29593 infeasible   93         9.00000   10.00000  11.1%   5.3   85s
 938911 29466   10.00000   89   11    9.00000   10.00000  11.1%   5.3   90s
 992569 30188   10.00000   93   15    9.00000   10.00000  11.1%   5.4   95s
 1047056 30289 infeasible   91         9.00000   10.00000  11.1%   5.4  100s
 1102383 30748 infeasible  122         9.00000   10.00000  11.1%   5.4  105s
 1155141 31057 infeasible  105         9.00000   10.00000  11.1%   5.4  110s
 1202307 31619 infeasible   94         9.00000   10.00000  11.1%   5.4  115s
 1250498 32210 infeasible   97         9.00000   10.00000  11.1%   5.5  120s
 1298611 32574 infeasible   91         9.00000   10.00000  11.1%   5.5  125s
 1354198 31974 infeasible   99         9.00000   10.00000  11.1%   5.5  130s
 1410125 31543 infeasible   94         9.00000   10.00000  11.1%   5.5  135s
 1466517 31557   10.00000   95   22    9.00000   10.00000  11.1%   5.4  140s
 1526367 31819   10.00000  119    9    9.00000   10.00000  11.1%   5.4  145s
 1581518 32211   10.00000  105   19    9.00000   10.00000  11.1%   5.4  150s
 1640512 32429 infeasible  126         9.00000   10.00000  11.1%   5.4  155s
 1699651 32773   10.00000  108   10    9.00000   10.00000  11.1%   5.3  160s
 1760731 32700   10.00000   84    8    9.00000   10.00000  11.1%   5.3  165s
 1816682 32773   10.00000   81    7    9.00000   10.00000  11.1%   5.3  170s
 1874112 33198 infeasible   71         9.00000   10.00000  11.1%   5.3  175s
 1932643 33843 infeasible  110         9.00000   10.00000  11.1%   5.3  180s
 1983953 33372 infeasible  102         9.00000   10.00000  11.1%   5.3  185s
 2040633 33492   10.00000   90    8    9.00000   10.00000  11.1%   5.3  190s
 2095917 32933 infeasible  108         9.00000   10.00000  11.1%   5.3  195s
 2152099 33728   10.00000  113   14    9.00000   10.00000  11.1%   5.3  200s
 2205672 33643 infeasible  101         9.00000   10.00000  11.1%   5.3  205s
 2260691 33507 infeasible  112         9.00000   10.00000  11.1%   5.3  210s
 2317208 33553 infeasible   86         9.00000   10.00000  11.1%   5.3  215s
 2375049 33419   10.00000   82   11    9.00000   10.00000  11.1%   5.3  220s
 2428016 34578 infeasible   96         9.00000   10.00000  11.1%   5.3  225s
 2488121 33690 infeasible  118         9.00000   10.00000  11.1%   5.3  230s
 2543045 33414   10.00000  113    9    9.00000   10.00000  11.1%   5.3  235s
 2594195 34410 infeasible   82         9.00000   10.00000  11.1%   5.3  240s
 2647041 34002   10.00000   81   13    9.00000   10.00000  11.1%   5.3  245s
 2698526 33465 infeasible   99         9.00000   10.00000  11.1%   5.3  250s
 2755982 32382 infeasible   92         9.00000   10.00000  11.1%   5.3  255s
 2807714 31944 infeasible   87         9.00000   10.00000  11.1%   5.3  260s
 2861688 31117 infeasible   93         9.00000   10.00000  11.1%   5.3  265s
 2915129 31731   10.00000   91   10    9.00000   10.00000  11.1%   5.3  270s
 2969861 31520 infeasible   81         9.00000   10.00000  11.1%   5.3  275s
 3023763 31337 infeasible   95         9.00000   10.00000  11.1%   5.3  280s
 3079006 31337   10.00000  110   13    9.00000   10.00000  11.1%   5.3  285s
 3133892 31720   10.00000   95   10    9.00000   10.00000  11.1%   5.3  290s
 3189360 31996 infeasible   88         9.00000   10.00000  11.1%   5.3  295s
 3242881 32537 infeasible  103         9.00000   10.00000  11.1%   5.3  300s
 3297617 32869 infeasible   88         9.00000   10.00000  11.1%   5.3  305s
 3355054 32963 infeasible   93         9.00000   10.00000  11.1%   5.3  310s
 3412790 33684   10.00000  103    6    9.00000   10.00000  11.1%   5.3  315s
 3470271 33357 infeasible  101         9.00000   10.00000  11.1%   5.3  320s
 3526403 32956 infeasible   93         9.00000   10.00000  11.1%   5.3  325s
 3580979 32515 infeasible  105         9.00000   10.00000  11.1%   5.3  330s
 3641459 33428 infeasible  110         9.00000   10.00000  11.1%   5.3  335s
 3702314 33124 infeasible  106         9.00000   10.00000  11.1%   5.3  340s
 3760188 33364 infeasible   82         9.00000   10.00000  11.1%   5.3  345s
 3815911 34353   10.00000   81   12    9.00000   10.00000  11.1%   5.3  350s
 3871777 34179   10.00000  112   15    9.00000   10.00000  11.1%   5.3  355s
 3927200 33816   10.00000   74    8    9.00000   10.00000  11.1%   5.3  360s
 3983473 34391 infeasible   98         9.00000   10.00000  11.1%   5.3  365s
 4040058 34382   10.00000   87   14    9.00000   10.00000  11.1%   5.3  370s
 4099201 33619 infeasible  109         9.00000   10.00000  11.1%   5.3  375s
 4155353 32978 infeasible  102         9.00000   10.00000  11.1%   5.3  380s
 4210075 32725 infeasible   98         9.00000   10.00000  11.1%   5.3  385s
 4261809 32558   10.00000   91   17    9.00000   10.00000  11.1%   5.3  390s
 4314816 32414   10.00000  108    8    9.00000   10.00000  11.1%   5.3  395s
 4369859 31395 infeasible   83         9.00000   10.00000  11.1%   5.3  400s
 4424770 31819   10.00000   96    9    9.00000   10.00000  11.1%   5.3  405s
 4483290 32318   10.00000   73   14    9.00000   10.00000  11.1%   5.3  410s
 4537648 33322 infeasible  121         9.00000   10.00000  11.1%   5.3  415s
 4591543 35668 infeasible  101         9.00000   10.00000  11.1%   5.3  420s
 4642529 35506   10.00000   73   10    9.00000   10.00000  11.1%   5.3  425s
 4695211 34532   10.00000  109    8    9.00000   10.00000  11.1%   5.3  430s
 4748638 34687   10.00000   97   10    9.00000   10.00000  11.1%   5.3  435s
 4806947 34642 infeasible   85         9.00000   10.00000  11.1%   5.3  440s
 4865415 34217   10.00000  106    9    9.00000   10.00000  11.1%   5.3  445s
 4922524 34641   10.00000  106    8    9.00000   10.00000  11.1%   5.3  450s
 4975408 33949 infeasible   89         9.00000   10.00000  11.1%   5.3  455s
 5031505 33469 infeasible  113         9.00000   10.00000  11.1%   5.3  460s
 5087748 33378 infeasible   89         9.00000   10.00000  11.1%   5.3  465s
 5142757 33214   10.00000   92   34    9.00000   10.00000  11.1%   5.3  470s
 5184579 33198   10.00000  126   15    9.00000   10.00000  11.1%   5.3  475s
 5235284 32277 infeasible   85         9.00000   10.00000  11.1%   5.3  480s
 5286491 30815 infeasible  106         9.00000   10.00000  11.1%   5.3  485s
 5336155 28222 infeasible   93         9.00000   10.00000  11.1%   5.3  490s
 5393373 26878 infeasible   91         9.00000   10.00000  11.1%   5.3  495s
 5442210 25863 infeasible  108         9.00000   10.00000  11.1%   5.3  500s
 5494175 24727 infeasible  117         9.00000   10.00000  11.1%   5.3  505s
 5550111 22603 infeasible   91         9.00000   10.00000  11.1%   5.3  510s
 5603070 19582 infeasible   66         9.00000   10.00000  11.1%   5.3  515s
 5648713 17585 infeasible  117         9.00000   10.00000  11.1%   5.4  520s
 5700509 15362 infeasible  100         9.00000   10.00000  11.1%   5.4  525s
 5748018 13490 infeasible  128         9.00000   10.00000  11.1%   5.4  530s
 5794782 13473 infeasible  106         9.00000   10.00000  11.1%   5.4  535s
 5845612 11535   10.00000   97   15    9.00000   10.00000  11.1%   5.4  540s
 5898346  8921 infeasible   99         9.00000   10.00000  11.1%   5.4  545s
 5950144  6991 infeasible   89         9.00000   10.00000  11.1%   5.4  550s
 6001205  3745   10.00000  106    8    9.00000   10.00000  11.1%   5.4  555s

Cutting planes:
  Inf proof: 9

Explored 6045696 nodes (32554536 simplex iterations) in 559.60 seconds
Thread count was 4 (of 4 available processors)

Solution count 3: 9 8 1 

Optimal solution found (tolerance 1.00e-04)
Best objective 9.000000000000e+00, best bound 9.000000000000e+00, gap 0.0000%

Gurobi 8.1.1 (win64) logging started 11/23/19 15:51:15

Changed value of parameter LogFile to logs/drand/max/drand-10-110-0.log
   Prev: gurobi.log  Default: 
Changed value of parameter LogToConsole to 0
   Prev: 1  Min: 0  Max: 1  Default: 1
Changed value of parameter TimeLimit to 3600.0
   Prev: 1e+100  Min: 0.0  Max: 1e+100  Default: 1e+100
Optimize a model with 626 rows, 288 columns and 2296 nonzeros
Variable types: 0 continuous, 288 integer (280 binary)
Coefficient statistics:
  Matrix range     [1e+00, 6e+02]
  Objective range  [1e+00, 1e+00]
  Bounds range     [1e+00, 1e+00]
  RHS range        [1e+00, 7e+02]
Found heuristic solution: objective 1.0000000
Presolve time: 0.01s
Presolved: 626 rows, 288 columns, 2296 nonzeros
Variable types: 0 continuous, 288 integer (280 binary)

Root relaxation: objective 1.000000e+01, 88 iterations, 0.00 seconds

    Nodes    |    Current Node    |     Objective Bounds      |     Work
 Expl Unexpl |  Obj  Depth IntInf | Incumbent    BestBd   Gap | It/Node Time

     0     0   10.00000    0    4    1.00000   10.00000   900%     -    0s
H    0     0                       8.0000000   10.00000  25.0%     -    0s
     0     0   10.00000    0    9    8.00000   10.00000  25.0%     -    0s
     0     0   10.00000    0    2    8.00000   10.00000  25.0%     -    0s
H    0     0                       9.0000000   10.00000  11.1%     -    0s
     0     0   10.00000    0    2    9.00000   10.00000  11.1%     -    0s
     0     0   10.00000    0    2    9.00000   10.00000  11.1%     -    0s
     0     0   10.00000    0    2    9.00000   10.00000  11.1%     -    0s
     0     2   10.00000    0    2    9.00000   10.00000  11.1%     -    0s
H    9     7                      10.0000000   10.00000  0.00%   0.0    0s

Cutting planes:
  Flow cover: 3

Explored 9 nodes (1516 simplex iterations) in 0.33 seconds
Thread count was 4 (of 4 available processors)

Solution count 4: 10 9 8 1 

Optimal solution found (tolerance 1.00e-04)
Best objective 1.000000000000e+01, best bound 1.000000000000e+01, gap 0.0000%
